<number of tasks>
50

<cycle time>
1000

<order strength>
0.199


<task times>
1 246
2 569
3 641
4 480
5 465
6 800
7 675
8 471
9 484
10 562
11 358
12 512
13 533
14 576
15 430
16 514
17 247
18 560
19 479
20 384
21 340
22 434
23 467
24 567
25 399
26 646
27 533
28 407
29 456
30 439
31 470
32 436
33 424
34 484
35 554
36 460
37 712
38 613
39 447
40 361
41 582
42 536
43 432
44 574
45 555
46 520
47 471
48 747
49 603
50 582

<precedence relations>
1,15
2,8
2,10
2,12
2,14
3,11
3,14
4,17
5,37
5,48
6,9
6,13
7,10
7,43
8,16
9,19
10,16
12,17
13,18
14,18
15,20
15,31
16,23
16,29
16,47
17,42
18,26
19,22
19,25
19,27
20,21
20,24
20,28
23,46
25,34
26,30
26,33
26,35
27,31
27,32
28,36
28,37
29,38
30,40
31,39
32,38
32,41
36,49
37,42
38,46
40,45
41,43
41,44
42,47
43,49
45,48
46,50
47,49

<end>
